N = 11;
H = 6;
T = 2;

avail = array3d(1..N, 1..H, 1..T, [7, 4, 3, 2, 1, 7, 7, 9, 0, 8, 6, 8, 2, 9, 0, 2, 5, 1, 4, 3, 5, 9, 7, 4, 8, 6, 7, 10, 3, 8, 0, 8, 1, 1, 10, 3, 9, 9, 8, 1, 10, 0, 10, 2, 5, 3, 8, 6, 0, 5, 5, 9, 9, 2, 8, 8, 0, 5, 3, 3, 8, 6, 4, 1, 4, 1, 1, 0, 1, 0, 7, 3, 0, 6, 10, 2, 7, 6, 10, 8, 1, 0, 3, 10, 6, 3, 6, 4, 6, 6, 4, 1, 7, 6, 0, 4, 9, 3, 3, 10, 7, 0, 7, 10, 4, 6, 10, 5, 8, 6, 7, 0, 9, 5, 6, 1, 5, 10, 0, 1, 4, 10, 8, 4, 9, 9, 8, 10, 9, 2, 2, 0]);

r = array2d(1..H, 1..T, [3, 4, 2, 3, 1, 1, 3, 2, 1, 2, 2, 1]);
